(declare-fun var0 () String)
(assert (RegexIn var0 (RegexConcat (RegexPlus (RegexUnion (Str2Reg "===") (Str2Reg ">>"))) (RegexConcat (RegexUnion (RegexUnion (Str2Reg ":::") (Str2Reg ";;")) (RegexPlus (Str2Reg "<"))) (RegexConcat (RegexPlus (RegexUnion (Str2Reg "...") (Str2Reg "///"))) (RegexConcat (RegexStar (RegexPlus (Str2Reg "-"))) (RegexConcat (RegexPlus (RegexUnion (Str2Reg "+") (Str2Reg ",,"))) (RegexConcat (RegexPlus (RegexPlus (Str2Reg "*"))) (RegexConcat (RegexStar (RegexUnion (Str2Reg "((") (Str2Reg "))"))) (RegexConcat (RegexUnion (RegexUnion (Str2Reg "%%%") (Str2Reg "&&")) (RegexStar (Str2Reg "'"))) (RegexConcat (RegexStar (RegexPlus (Str2Reg "$$"))) (RegexConcat (RegexUnion (RegexUnion (Str2Reg "ZZZ") (Str2Reg "!!!")) (RegexUnion (Str2Reg "\"\"\"") (Str2Reg "###"))) (RegexConcat (RegexUnion (RegexUnion (Str2Reg "WWW") (Str2Reg "XXX")) (RegexStar (Str2Reg "YYY"))) (RegexConcat (RegexPlus (RegexPlus (Str2Reg "VVV"))) (RegexConcat (RegexUnion (RegexUnion (Str2Reg "RRR") (Str2Reg "SS")) (RegexUnion (Str2Reg "TT") (Str2Reg "UU"))) (RegexConcat (RegexStar (RegexUnion (Str2Reg "P") (Str2Reg "Q"))) (RegexConcat (RegexUnion (RegexUnion (Str2Reg "MM") (Str2Reg "NN")) (RegexStar (Str2Reg "OO"))) (RegexConcat (RegexStar (RegexUnion (Str2Reg "K") (Str2Reg "LLL"))) (RegexConcat (RegexStar (RegexStar (Str2Reg "JJ"))) (RegexConcat (RegexUnion (RegexUnion (Str2Reg "GG") (Str2Reg "HHH")) (RegexPlus (Str2Reg "III"))) (RegexConcat (RegexPlus (RegexUnion (Str2Reg "E") (Str2Reg "FFF"))) (RegexConcat (RegexStar (RegexPlus (Str2Reg "D"))) (RegexConcat (RegexUnion (RegexPlus (Str2Reg "AAA")) (RegexUnion (Str2Reg "BBB") (Str2Reg "CCC"))) (RegexConcat (RegexUnion (RegexPlus (Str2Reg "xx")) (RegexUnion (Str2Reg "yyy") (Str2Reg "z"))) (RegexConcat (RegexUnion (RegexStar (Str2Reg "uu")) (RegexUnion (Str2Reg "v") (Str2Reg "www"))) (RegexConcat (RegexPlus (RegexPlus (Str2Reg "t"))) (RegexConcat (RegexPlus (RegexUnion (Str2Reg "rr") (Str2Reg "ss"))) (RegexConcat (RegexUnion (RegexUnion (Str2Reg "oo") (Str2Reg "ppp")) (RegexPlus (Str2Reg "q"))) (RegexConcat (RegexUnion (RegexUnion (Str2Reg "kk") (Str2Reg "lll")) (RegexUnion (Str2Reg "mm") (Str2Reg "n"))) (RegexConcat (RegexUnion (RegexUnion (Str2Reg "h") (Str2Reg "ii")) (RegexStar (Str2Reg "jjj"))) (RegexConcat (RegexPlus (RegexUnion (Str2Reg "fff") (Str2Reg "gg"))) (RegexConcat (RegexStar (RegexStar (Str2Reg "eee"))) (RegexConcat (RegexPlus (RegexUnion (Str2Reg "c") (Str2Reg "d"))) (RegexConcat (RegexStar (RegexPlus (Str2Reg "bbb"))) (RegexConcat (RegexPlus (RegexPlus (Str2Reg "a"))) (RegexConcat (RegexPlus (RegexPlus (Str2Reg "99"))) (RegexConcat (RegexUnion (RegexPlus (Str2Reg "7")) (RegexPlus (Str2Reg "888"))) (RegexConcat (RegexUnion (RegexStar (Str2Reg "44")) (RegexUnion (Str2Reg "5") (Str2Reg "666"))) (RegexConcat (RegexPlus (RegexStar (Str2Reg "333"))) (RegexConcat (RegexUnion (RegexPlus (Str2Reg "111")) (RegexStar (Str2Reg "2"))) (RegexStar (RegexPlus (Str2Reg "0")))))))))))))))))))))))))))))))))))))))))))
(check-sat)